files/upTests/___types/func/0003.eprime
language ESSENCE' 1.0

find f_Matrix1D: matrix indexed by [int(1..2)] of int(-1, 1)
such that
    forAll v__0 : int(1..2) . f_Matrix1D[v__0] = (1 = v__0) * -1 + (2 = v__0)
