files/upTests/___types/func/0003.eprime.solution
language ESSENCE' 1.0
$ minion Nodes: 5
$ minion TotalTime: 0.003982
$ Savile Row TotalTime: 0.424
letting f_FunctionAsReln_RelationAsSet_SetExplicitVarSizeWithMarker_tuple1 be 2
letting f_FunctionAsReln_RelationAsSet_SetExplicitVarSizeWithMarker_tuple2_tuple1 be [1, 2, 1, 1;int(1..4)]
letting f_FunctionAsReln_RelationAsSet_SetExplicitVarSizeWithMarker_tuple2_tuple2 be [-1, 1, -1, -1;int(1..4)]
